NAME : gr48
TYPE : OP
DIMENSION : 48
COST_LIMIT : 2523
ROUTE_NODES : 31
ROUTE_SCORE : 1480
ROUTE_COST : 2509
NODE_SEQUENCE_SECTION
1
29
7
28
46
18
34
23
25
3
43
45
2
35
42
39
40
37
24
10
12
31
33
8
22
6
36
11
16
48
13
-1
DEPOT_SECTION
1
-1
EOF
